Version identifier: 22.1.0.0 | 2022-03-09 | 1a383f8ce
CPXPARAM_Read_DataCheck                          1
1 of 1 MIP starts provided solutions.
MIP start 'm1' defined initial solution with objective 50.0000.
Tried aggregator 4 times.
MIP Presolve eliminated 49740 rows and 5656 columns.
MIP Presolve modified 705 coefficients.
Aggregator did 45378 substitutions.
Reduced MIP has 5967 rows, 46466 columns, and 98980 nonzeros.
Reduced MIP has 46436 binaries, 30 generals, 0 SOSs, and 0 indicators.
Presolve time = 0.52 sec. (547.10 ticks)
Tried aggregator 1 time.
Detecting symmetries...
Reduced MIP has 5967 rows, 46466 columns, and 98980 nonzeros.
Reduced MIP has 46436 binaries, 30 generals, 0 SOSs, and 0 indicators.
Presolve time = 0.09 sec. (72.56 ticks)
Probing fixed 46 vars, tightened 0 bounds.
Probing time = 0.15 sec. (29.15 ticks)
Clique table members: 94237.
MIP emphasis: balance optimality and feasibility.
MIP search method: dynamic search.
Parallel mode: deterministic, using up to 8 threads.
Root relaxation solution time = 0.46 sec. (368.41 ticks)

        Nodes                                         Cuts/
   Node  Left     Objective  IInf  Best Integer    Best Bound    ItCnt     Gap

*     0+    0                           50.0000        0.0000           100.00%
      0     0       30.4003  4344       50.0000       30.4003     5214   39.20%
      0     0       49.0000   814       50.0000      Cuts: 47    13004    2.00%
      0     0       49.0000   920       50.0000      Cuts: 93    23883    2.00%

Repeating presolve.
Tried aggregator 3 times.
MIP Presolve eliminated 1248 rows and 25337 columns.
MIP Presolve modified 9 coefficients.
Aggregator did 954 substitutions.
Reduced MIP has 3765 rows, 20175 columns, and 43855 nonzeros.
Reduced MIP has 20175 binaries, 0 generals, 0 SOSs, and 0 indicators.
Presolve time = 0.10 sec. (92.80 ticks)
Tried aggregator 2 times.
Detecting symmetries...
MIP Presolve eliminated 0 rows and 4 columns.
MIP Presolve modified 4 coefficients.
Aggregator did 10 substitutions.
Reduced MIP has 3755 rows, 20161 columns, and 43869 nonzeros.
Reduced MIP has 20161 binaries, 0 generals, 0 SOSs, and 0 indicators.
Presolve time = 0.04 sec. (37.86 ticks)
Represolve time = 0.19 sec. (185.09 ticks)
Probing fixed 64 vars, tightened 0 bounds.
Probing changed sense of 1 constraints.
Probing time = 0.08 sec. (38.93 ticks)
Clique table members: 38016.
MIP emphasis: balance optimality and feasibility.
MIP search method: dynamic search.
Parallel mode: deterministic, using up to 8 threads.
Root relaxation solution time = 1.35 sec. (1070.06 ticks)

        Nodes                                         Cuts/
   Node  Left     Objective  IInf  Best Integer    Best Bound    ItCnt     Gap

*     0+    0                           50.0000       49.0000             2.00%
      0     0       49.0000  1182       50.0000       49.0000    46574    2.00%
      0     0       49.0000   533       50.0000      Cuts: 20    53799    2.00%
      0     0        cutoff             50.0000                 188308    0.00%
Elapsed time = 212.11 sec. (91468.78 ticks, tree = 0.01 MB, solutions = 1)

Clique cuts applied:  9
Zero-half cuts applied:  66
Lift and project cuts applied:  3
Gomory fractional cuts applied:  19

Root node processing (before b&c):
  Real time             =  212.11 sec. (91470.84 ticks)
Parallel b&c, 8 threads:
  Real time             =    0.00 sec. (0.00 ticks)
  Sync time (average)   =    0.00 sec.
  Wait time (average)   =    0.00 sec.
                          ------------
Total (root+branch&cut) =  212.11 sec. (91470.84 ticks)
